4 
5  19 36 51 
6  06 21 36 51 
7  03 18 33 48 
8  03 18 33 48 
9  03 18 33 48 
10  03 18 33 48 
11  03 18 33 48 
12  03 18 33 48 
13  04 21 36 51 
14  06 21 36 51 
15  05 20 35 50 
16  05 20 35 50 
17  05 20 35 50 
18  05 20 35 50 
19  04 18 33 48 
20  05 20 35 50 
21  05 20 35 50 
22  05 20 35 50 
23  06 25 42 
0 
